c uprop, v00.0, 
c reading from data/prog629.c.cnf
c done reading: 0
p cnf 132 533
-42 -58 0
-42 -56 0
42 56 58 0
-36 56 58 0
-36 -56 -58 0
36 56 -58 0
36 -56 58 0
42 -52 0
-51 -52 0
-42 51 52 0
-42 -47 51 0
42 -47 -51 0
42 47 51 0
-42 47 -51 0
-43 52 0
-40 -43 0
40 43 -52 0
-38 40 -52 0
-38 -40 52 0
38 40 52 0
38 -40 -52 0
-37 43 0
-34 -37 0
34 37 -43 0
34 -43 -57 0
-34 43 -57 0
34 43 57 0
-34 -43 57 0
37 -59 0
-54 -59 0
-37 54 59 0
-37 54 -60 0
37 -54 -60 0
37 54 60 0
-37 -54 60 0
59 -61 0
-49 -61 0
49 -59 61 0
49 -59 -62 0
-49 59 -62 0
49 59 62 0
-49 -59 62 0
61 -63 0
-45 -63 0
45 -61 63 0
45 -61 -64 0
-45 61 -64 0
45 61 64 0
-45 -61 64 0
40 -65 0
58 -65 0
-40 -58 65 0
-40 -58 -66 0
40 58 -66 0
-40 58 66 0
40 -58 66 0
-34 -56 67 0
-34 -65 67 0
-56 -65 67 0
34 56 -67 0
34 65 -67 0
56 65 -67 0
34 -67 -68 0
56 -67 -68 0
65 -67 -68 0
-34 67 68 0
-56 67 68 0
-65 67 68 0
-34 -56 -65 68 0
34 56 65 -68 0
-51 -54 69 0
-54 -67 69 0
-51 -67 69 0
51 54 -69 0
54 67 -69 0
51 67 -69 0
54 -69 -70 0
51 -69 -70 0
67 -69 -70 0
-54 69 70 0
-51 69 70 0
-67 69 70 0
-51 -54 -67 70 0
51 54 67 -70 0
-40 -49 71 0
-49 -69 71 0
-40 -69 71 0
40 49 -71 0
49 69 -71 0
40 69 -71 0
-32 49 -71 0
-32 40 -71 0
-32 69 -71 0
32 -49 71 0
32 -40 71 0
32 -69 71 0
32 -40 -49 -69 0
-32 40 49 69 0
31 -34 -45 0
31 -45 -71 0
31 -34 -71 0
-31 34 45 0
-31 45 71 0
-31 34 71 0
31 -45 0
31 -34 0
31 -71 0
-34 -45 -71 0
-30 54 0
-30 31 0
30 -31 -54 0
31 -54 0
-31 54 0
-29 49 0
-29 30 0
29 -30 -49 0
30 -49 0
-30 49 0
-29 -45 0
29 -45 0
-29 45 0
-39 -58 0
-39 -56 0
39 56 58 0
-33 56 58 0
-33 -56 -58 0
33 56 -58 0
33 -56 58 0
39 -53 0
-51 -53 0
-39 51 53 0
-39 -48 51 0
39 -48 -51 0
39 48 51 0
-39 48 -51 0
-44 53 0
-44 -66 0
44 -53 66 0
-28 -53 66 0
-28 53 -66 0
28 53 66 0
28 -53 -66 0
-25 44 0
-25 -68 0
25 -44 68 0
-22 -44 68 0
-22 44 -68 0
22 44 68 0
22 -44 -68 0
-21 25 0
-21 -70 0
21 -25 70 0
-20 -25 70 0
-20 25 -70 0
20 25 70 0
20 -25 -70 0
-19 21 0
-19 -32 0
19 -21 32 0
-18 -21 32 0
-18 21 -32 0
18 21 32 0
18 -21 -32 0
-17 19 0
17 -19 0
-16 -19 0
16 19 0
-15 17 0
15 -17 0
-14 -17 0
14 17 0
-13 15 0
13 -15 0
-12 -15 0
12 15 0
-11 13 0
11 -13 0
-10 -13 0
10 13 0
-9 11 0
9 -11 0
-8 -11 0
8 11 0
-7 -26 0
-7 -23 0
7 23 26 0
-6 23 26 0
-6 -23 -26 0
6 23 -26 0
6 -23 26 0
7 -72 0
-72 -73 0
-7 72 73 0
-7 73 -75 0
7 -73 -75 0
7 73 75 0
-7 -73 75 0
72 -76 0
-76 -77 0
-72 76 77 0
-72 77 -79 0
72 -77 -79 0
72 77 79 0
-72 -77 79 0
76 -80 0
-80 -81 0
-76 80 81 0
-76 81 -83 0
76 -81 -83 0
76 81 83 0
-76 -81 83 0
80 -84 0
-84 -85 0
-80 84 85 0
-80 85 -87 0
80 -85 -87 0
80 85 87 0
-80 -85 87 0
84 -88 0
-88 -89 0
-84 88 89 0
-84 89 -91 0
84 -89 -91 0
84 89 91 0
-84 -89 91 0
88 -92 0
-92 -93 0
-88 92 93 0
-88 93 -95 0
88 -93 -95 0
88 93 95 0
-88 -93 95 0
23 -96 0
26 -96 0
-23 -26 96 0
-23 -26 -97 0
23 26 -97 0
-23 26 97 0
23 -26 97 0
-23 -73 98 0
-73 -96 98 0
-23 -96 98 0
23 73 -98 0
73 96 -98 0
23 96 -98 0
73 -98 -99 0
23 -98 -99 0
96 -98 -99 0
-73 98 99 0
-23 98 99 0
-96 98 99 0
-23 -73 -96 99 0
23 73 96 -99 0
-73 -77 100 0
-77 -98 100 0
-73 -98 100 0
73 77 -100 0
77 98 -100 0
73 98 -100 0
77 -100 -101 0
73 -100 -101 0
98 -100 -101 0
-77 100 101 0
-73 100 101 0
-98 100 101 0
-73 -77 -98 101 0
73 77 98 -101 0
-77 -81 102 0
-81 -100 102 0
-77 -100 102 0
77 81 -102 0
81 100 -102 0
77 100 -102 0
81 -102 -103 0
77 -102 -103 0
100 -102 -103 0
-81 102 103 0
-77 102 103 0
-100 102 103 0
-77 -81 -100 103 0
77 81 100 -103 0
-81 -85 104 0
-85 -102 104 0
-81 -102 104 0
81 85 -104 0
85 102 -104 0
81 102 -104 0
85 -104 -105 0
81 -104 -105 0
102 -104 -105 0
-85 104 105 0
-81 104 105 0
-102 104 105 0
-81 -85 -102 105 0
81 85 102 -105 0
-85 -89 106 0
-89 -104 106 0
-85 -104 106 0
85 89 -106 0
89 104 -106 0
85 104 -106 0
89 -106 -107 0
85 -106 -107 0
104 -106 -107 0
-89 106 107 0
-85 106 107 0
-104 106 107 0
-85 -89 -104 107 0
85 89 104 -107 0
-89 -93 108 0
-93 -106 108 0
-89 -106 108 0
89 93 -108 0
93 106 -108 0
89 106 -108 0
93 -108 -109 0
89 -108 -109 0
106 -108 -109 0
-93 108 109 0
-89 108 109 0
-106 108 109 0
-89 -93 -106 109 0
89 93 106 -109 0
93 -110 0
108 -110 0
-93 -108 110 0
-93 -108 -111 0
93 108 -111 0
-93 108 111 0
93 -108 111 0
101 -112 0
26 -112 0
-26 -101 112 0
-26 -101 -113 0
26 101 -113 0
26 -101 113 0
-26 101 113 0
-23 -103 114 0
-103 -112 114 0
-23 -112 114 0
23 103 -114 0
103 112 -114 0
23 112 -114 0
103 -114 -115 0
23 -114 -115 0
112 -114 -115 0
-103 114 115 0
-23 114 115 0
-112 114 115 0
-23 -103 -112 115 0
23 103 112 -115 0
-73 -105 116 0
-105 -114 116 0
-73 -114 116 0
73 105 -116 0
105 114 -116 0
73 114 -116 0
105 -116 -117 0
73 -116 -117 0
114 -116 -117 0
-105 116 117 0
-73 116 117 0
-114 116 117 0
-73 -105 -114 117 0
73 105 114 -117 0
-77 -107 118 0
-107 -116 118 0
-77 -116 118 0
77 107 -118 0
107 116 -118 0
77 116 -118 0
107 -118 -119 0
77 -118 -119 0
116 -118 -119 0
-107 118 119 0
-77 118 119 0
-116 118 119 0
-77 -107 -116 119 0
77 107 116 -119 0
-81 -109 120 0
-109 -118 120 0
-81 -118 120 0
81 109 -120 0
109 118 -120 0
81 118 -120 0
-109 120 0
-81 120 0
-118 120 0
-81 -109 -118 0
-85 -111 121 0
-111 -120 121 0
-85 -120 121 0
85 111 -121 0
111 120 -121 0
85 120 -121 0
-111 121 0
-85 121 0
-120 121 0
-85 -111 -120 0
-89 -110 122 0
-110 -121 122 0
-89 -121 122 0
89 110 -122 0
110 121 -122 0
89 121 -122 0
-110 122 0
-89 122 0
-121 122 0
-89 -110 -121 0
-93 -122 0
-93 122 0
93 -122 0
-26 -41 0
-41 -97 0
26 41 97 0
26 -35 97 0
-26 -35 -97 0
-26 35 97 0
26 35 -97 0
41 -55 0
-55 -99 0
-41 55 99 0
-41 -50 99 0
41 -50 -99 0
41 50 99 0
-41 50 -99 0
-46 55 0
-46 -113 0
46 -55 113 0
-27 -55 113 0
-27 55 -113 0
27 55 113 0
27 -55 -113 0
-24 46 0
-24 -115 0
24 -46 115 0
-46 -74 115 0
46 -74 -115 0
46 74 115 0
-46 74 -115 0
24 -78 0
-78 -117 0
-24 78 117 0
-24 -82 117 0
24 -82 -117 0
24 82 117 0
-24 82 -117 0
78 -86 0
-86 -119 0
-78 86 119 0
-78 -90 119 0
78 -90 -119 0
78 90 119 0
-78 90 -119 0
86 -94 0
-86 94 0
-86 -123 0
86 123 0
94 -124 0
-94 124 0
-94 -125 0
94 125 0
124 -126 0
-124 126 0
-124 -127 0
124 127 0
126 -128 0
-126 128 0
-126 -129 0
126 129 0
128 -130 0
-128 130 0
-128 -131 0
128 131 0
58 -132 0
26 -132 0
-26 -58 132 0
26 -58 0
-26 58 0
5 -56 -97 0
5 -56 -132 0
5 -97 -132 0
-5 56 97 0
-5 56 132 0
-5 97 132 0
5 -56 0
5 -97 0
5 -132 0
-56 -97 -132 0
4 -51 -99 0
4 -5 -51 0
4 -5 -99 0
-4 51 99 0
-4 5 51 0
-4 5 99 0
4 -51 0
4 -99 0
4 -5 0
-5 -51 -99 0
3 -66 -113 0
3 -4 -66 0
3 -4 -113 0
-3 66 113 0
-3 4 66 0
-3 4 113 0
3 -66 0
3 -113 0
3 -4 0
-4 -66 -113 0
2 -68 -115 0
2 -3 -68 0
2 -3 -115 0
-2 68 115 0
-2 3 68 0
-2 3 115 0
-2 68 0
-2 115 0
-2 3 0
3 68 115 0
1 -70 -117 0
1 -2 -70 0
1 -2 -117 0
-1 70 117 0
-1 2 70 0
-1 2 117 0
-1 70 0
-1 117 0
-1 2 0
2 70 117 0
-32 -119 0
-1 -32 0
-1 -119 0
1 32 119 0
